\Problem name: compact

Minimize
OBJROW: C
Subject To
ord(0,1):  - x(0,1) + x(0,2) >= 7
ord(0,2):  x(0,0) - x(0,2) >= 7
ord(1,1):  x(1,0) - x(1,1) >= 4
ord(1,2):  - x(1,0) + x(1,2) >= 3
ord(2,1):  - x(2,1) + x(2,2) >= 7
ord(2,2):  x(2,0) - x(2,2) >= 6
triangle2(0,1,0):  y(0,1,0) + y(1,0,0) = 1
triangle2(0,1,1):  y(0,1,1) + y(1,0,1) = 1
triangle2(0,1,2):  y(0,1,2) + y(1,0,2) = 1
triangle2(0,2,0):  y(0,2,0) + y(2,0,0) = 1
triangle2(0,2,1):  y(0,2,1) + y(2,0,1) = 1
triangle2(0,2,2):  y(0,2,2) + y(2,0,2) = 1
triangle2(1,2,0):  y(1,2,0) + y(2,1,0) = 1
triangle2(1,2,1):  y(1,2,1) + y(2,1,1) = 1
triangle2(1,2,2):  y(1,2,2) + y(2,1,2) = 1
MCLinV(0,1,0):  - x(0,0) + v(0,1,0)p - v(0,1,0)n + x(1,0) = -3
MCLinV(1,0,0):  x(0,0) + v(1,0,0)p - v(1,0,0)n - x(1,0) = -1
MCLin1(0,1,0):  u(0,1,0)p - u(0,1,0)n >= 0
MCLin2(0,1,0):  23 y(1,0,0) + u(0,1,0)p - u(0,1,0)n >= 0
MCLin3(0,1,0):  -36 y(1,0,0) - v(0,1,0)p + v(0,1,0)n + u(0,1,0)p - u(0,1,0)n >= -36
MCLin4(0,1,0):  -36 y(1,0,0) + u(0,1,0)p - u(0,1,0)n <= 0
MCLin5(0,1,0):  23 y(1,0,0) - v(0,1,0)p + v(0,1,0)n + u(0,1,0)p - u(0,1,0)n <= 23
MCLin6(1,0,0):  u(1,0,0)p - u(1,0,0)n >= 0
MCLin7(1,0,0):  40 y(0,1,0) + u(1,0,0)p - u(1,0,0)n >= 0
MCLin8(1,0,0):  -19 y(0,1,0) - v(1,0,0)p + v(1,0,0)n + u(1,0,0)p - u(1,0,0)n >= -19
MCLin9(1,0,0):  -19 y(0,1,0) + u(1,0,0)p - u(1,0,0)n <= 0
MCLin10(1,0,0):  40 y(0,1,0) - v(1,0,0)p + v(1,0,0)n + u(1,0,0)p - u(1,0,0)n <= 40
MCLinV(0,1,1):  - x(0,1) + v(0,1,1)p - v(0,1,1)n + x(1,1) = -4
MCLinV(1,0,1):  x(0,1) + v(1,0,1)p - v(1,0,1)n - x(1,1) = -7
MCLin1(0,1,1):  u(0,1,1)p - u(0,1,1)n >= 0
MCLin2(0,1,1):  34 y(1,0,1) + u(0,1,1)p - u(0,1,1)n >= 0
MCLin3(0,1,1):  -25 y(1,0,1) - v(0,1,1)p + v(0,1,1)n + u(0,1,1)p - u(0,1,1)n >= -25
MCLin4(0,1,1):  -25 y(1,0,1) + u(0,1,1)p - u(0,1,1)n <= 0
MCLin5(0,1,1):  34 y(1,0,1) - v(0,1,1)p + v(0,1,1)n + u(0,1,1)p - u(0,1,1)n <= 34
MCLin6(1,0,1):  u(1,0,1)p - u(1,0,1)n >= 0
MCLin7(1,0,1):  36 y(0,1,1) + u(1,0,1)p - u(1,0,1)n >= 0
MCLin8(1,0,1):  -23 y(0,1,1) - v(1,0,1)p + v(1,0,1)n + u(1,0,1)p - u(1,0,1)n >= -23
MCLin9(1,0,1):  -23 y(0,1,1) + u(1,0,1)p - u(1,0,1)n <= 0
MCLin10(1,0,1):  36 y(0,1,1) - v(1,0,1)p + v(1,0,1)n + u(1,0,1)p - u(1,0,1)n <= 36
MCLinV(0,1,2):  - x(0,2) + v(0,1,2)p - v(0,1,2)n + x(1,2) = -7
MCLinV(1,0,2):  x(0,2) + v(1,0,2)p - v(1,0,2)n - x(1,2) = -7
MCLin1(0,1,2):  u(0,1,2)p - u(0,1,2)n >= 0
MCLin2(0,1,2):  37 y(1,0,2) + u(0,1,2)p - u(0,1,2)n >= 0
MCLin3(0,1,2):  -22 y(1,0,2) - v(0,1,2)p + v(0,1,2)n + u(0,1,2)p - u(0,1,2)n >= -22
MCLin4(0,1,2):  -22 y(1,0,2) + u(0,1,2)p - u(0,1,2)n <= 0
MCLin5(0,1,2):  37 y(1,0,2) - v(0,1,2)p + v(0,1,2)n + u(0,1,2)p - u(0,1,2)n <= 37
MCLin6(1,0,2):  u(1,0,2)p - u(1,0,2)n >= 0
MCLin7(1,0,2):  36 y(0,1,2) + u(1,0,2)p - u(1,0,2)n >= 0
MCLin8(1,0,2):  -23 y(0,1,2) - v(1,0,2)p + v(1,0,2)n + u(1,0,2)p - u(1,0,2)n >= -23
MCLin9(1,0,2):  -23 y(0,1,2) + u(1,0,2)p - u(1,0,2)n <= 0
MCLin10(1,0,2):  36 y(0,1,2) - v(1,0,2)p + v(1,0,2)n + u(1,0,2)p - u(1,0,2)n <= 36
MCLinV(0,2,0):  - x(0,0) + v(0,2,0)p - v(0,2,0)n + x(2,0) = -2
MCLinV(2,0,0):  x(0,0) + v(2,0,0)p - v(2,0,0)n - x(2,0) = -1
MCLin1(0,2,0):  u(0,2,0)p - u(0,2,0)n >= 0
MCLin2(0,2,0):  30 y(2,0,0) + u(0,2,0)p - u(0,2,0)n >= 0
MCLin3(0,2,0):  -28 y(2,0,0) - v(0,2,0)p + v(0,2,0)n + u(0,2,0)p - u(0,2,0)n >= -28
MCLin4(0,2,0):  -28 y(2,0,0) + u(0,2,0)p - u(0,2,0)n <= 0
MCLin5(0,2,0):  30 y(2,0,0) - v(0,2,0)p + v(0,2,0)n + u(0,2,0)p - u(0,2,0)n <= 30
MCLin6(2,0,0):  u(2,0,0)p - u(2,0,0)n >= 0
MCLin7(2,0,0):  31 y(0,2,0) + u(2,0,0)p - u(2,0,0)n >= 0
MCLin8(2,0,0):  -27 y(0,2,0) - v(2,0,0)p + v(2,0,0)n + u(2,0,0)p - u(2,0,0)n >= -27
MCLin9(2,0,0):  -27 y(0,2,0) + u(2,0,0)p - u(2,0,0)n <= 0
MCLin10(2,0,0):  31 y(0,2,0) - v(2,0,0)p + v(2,0,0)n + u(2,0,0)p - u(2,0,0)n <= 31
MCLinV(0,2,1):  - x(0,1) + v(0,2,1)p - v(0,2,1)n + x(2,1) = -7
MCLinV(2,0,1):  x(0,1) + v(2,0,1)p - v(2,0,1)n - x(2,1) = -7
MCLin1(0,2,1):  u(0,2,1)p - u(0,2,1)n >= 0
MCLin2(0,2,1):  36 y(2,0,1) + u(0,2,1)p - u(0,2,1)n >= 0
MCLin3(0,2,1):  -22 y(2,0,1) - v(0,2,1)p + v(0,2,1)n + u(0,2,1)p - u(0,2,1)n >= -22
MCLin4(0,2,1):  -22 y(2,0,1) + u(0,2,1)p - u(0,2,1)n <= 0
MCLin5(0,2,1):  36 y(2,0,1) - v(0,2,1)p + v(0,2,1)n + u(0,2,1)p - u(0,2,1)n <= 36
MCLin6(2,0,1):  u(2,0,1)p - u(2,0,1)n >= 0
MCLin7(2,0,1):  36 y(0,2,1) + u(2,0,1)p - u(2,0,1)n >= 0
MCLin8(2,0,1):  -22 y(0,2,1) - v(2,0,1)p + v(2,0,1)n + u(2,0,1)p - u(2,0,1)n >= -22
MCLin9(2,0,1):  -22 y(0,2,1) + u(2,0,1)p - u(2,0,1)n <= 0
MCLin10(2,0,1):  36 y(0,2,1) - v(2,0,1)p + v(2,0,1)n + u(2,0,1)p - u(2,0,1)n <= 36
MCLinV(0,2,2):  - x(0,2) + v(0,2,2)p - v(0,2,2)n + x(2,2) = -6
MCLinV(2,0,2):  x(0,2) + v(2,0,2)p - v(2,0,2)n - x(2,2) = -7
MCLin1(0,2,2):  u(0,2,2)p - u(0,2,2)n >= 0
MCLin2(0,2,2):  35 y(2,0,2) + u(0,2,2)p - u(0,2,2)n >= 0
MCLin3(0,2,2):  -23 y(2,0,2) - v(0,2,2)p + v(0,2,2)n + u(0,2,2)p - u(0,2,2)n >= -23
MCLin4(0,2,2):  -23 y(2,0,2) + u(0,2,2)p - u(0,2,2)n <= 0
MCLin5(0,2,2):  35 y(2,0,2) - v(0,2,2)p + v(0,2,2)n + u(0,2,2)p - u(0,2,2)n <= 35
MCLin6(2,0,2):  u(2,0,2)p - u(2,0,2)n >= 0
MCLin7(2,0,2):  36 y(0,2,2) + u(2,0,2)p - u(2,0,2)n >= 0
MCLin8(2,0,2):  -22 y(0,2,2) - v(2,0,2)p + v(2,0,2)n + u(2,0,2)p - u(2,0,2)n >= -22
MCLin9(2,0,2):  -22 y(0,2,2) + u(2,0,2)p - u(2,0,2)n <= 0
MCLin10(2,0,2):  36 y(0,2,2) - v(2,0,2)p + v(2,0,2)n + u(2,0,2)p - u(2,0,2)n <= 36
MCLinV(1,2,0):  - x(1,0) + v(1,2,0)p - v(1,2,0)n + x(2,0) = -2
MCLinV(2,1,0):  x(1,0) + v(2,1,0)p - v(2,1,0)n - x(2,0) = -3
MCLin1(1,2,0):  u(1,2,0)p - u(1,2,0)n >= 0
MCLin2(1,2,0):  40 y(2,1,0) + u(1,2,0)p - u(1,2,0)n >= 0
MCLin3(1,2,0):  -19 y(2,1,0) - v(1,2,0)p + v(1,2,0)n + u(1,2,0)p - u(1,2,0)n >= -19
MCLin4(1,2,0):  -19 y(2,1,0) + u(1,2,0)p - u(1,2,0)n <= 0
MCLin5(1,2,0):  40 y(2,1,0) - v(1,2,0)p + v(1,2,0)n + u(1,2,0)p - u(1,2,0)n <= 40
MCLin6(2,1,0):  u(2,1,0)p - u(2,1,0)n >= 0
MCLin7(2,1,0):  24 y(1,2,0) + u(2,1,0)p - u(2,1,0)n >= 0
MCLin8(2,1,0):  -35 y(1,2,0) - v(2,1,0)p + v(2,1,0)n + u(2,1,0)p - u(2,1,0)n >= -35
MCLin9(2,1,0):  -35 y(1,2,0) + u(2,1,0)p - u(2,1,0)n <= 0
MCLin10(2,1,0):  24 y(1,2,0) - v(2,1,0)p + v(2,1,0)n + u(2,1,0)p - u(2,1,0)n <= 24
MCLinV(1,2,1):  - x(1,1) + v(1,2,1)p - v(1,2,1)n + x(2,1) = -7
MCLinV(2,1,1):  x(1,1) + v(2,1,1)p - v(2,1,1)n - x(2,1) = -4
MCLin1(1,2,1):  u(1,2,1)p - u(1,2,1)n >= 0
MCLin2(1,2,1):  36 y(2,1,1) + u(1,2,1)p - u(1,2,1)n >= 0
MCLin3(1,2,1):  -23 y(2,1,1) - v(1,2,1)p + v(1,2,1)n + u(1,2,1)p - u(1,2,1)n >= -23
MCLin4(1,2,1):  -23 y(2,1,1) + u(1,2,1)p - u(1,2,1)n <= 0
MCLin5(1,2,1):  36 y(2,1,1) - v(1,2,1)p + v(1,2,1)n + u(1,2,1)p - u(1,2,1)n <= 36
MCLin6(2,1,1):  u(2,1,1)p - u(2,1,1)n >= 0
MCLin7(2,1,1):  34 y(1,2,1) + u(2,1,1)p - u(2,1,1)n >= 0
MCLin8(2,1,1):  -25 y(1,2,1) - v(2,1,1)p + v(2,1,1)n + u(2,1,1)p - u(2,1,1)n >= -25
MCLin9(2,1,1):  -25 y(1,2,1) + u(2,1,1)p - u(2,1,1)n <= 0
MCLin10(2,1,1):  34 y(1,2,1) - v(2,1,1)p + v(2,1,1)n + u(2,1,1)p - u(2,1,1)n <= 34
MCLinV(1,2,2):  - x(1,2) + v(1,2,2)p - v(1,2,2)n + x(2,2) = -6
MCLinV(2,1,2):  x(1,2) + v(2,1,2)p - v(2,1,2)n - x(2,2) = -7
MCLin1(1,2,2):  u(1,2,2)p - u(1,2,2)n >= 0
MCLin2(1,2,2):  35 y(2,1,2) + u(1,2,2)p - u(1,2,2)n >= 0
MCLin3(1,2,2):  -24 y(2,1,2) - v(1,2,2)p + v(1,2,2)n + u(1,2,2)p - u(1,2,2)n >= -24
MCLin4(1,2,2):  -24 y(2,1,2) + u(1,2,2)p - u(1,2,2)n <= 0
MCLin5(1,2,2):  35 y(2,1,2) - v(1,2,2)p + v(1,2,2)n + u(1,2,2)p - u(1,2,2)n <= 35
MCLin6(2,1,2):  u(2,1,2)p - u(2,1,2)n >= 0
MCLin7(2,1,2):  37 y(1,2,2) + u(2,1,2)p - u(2,1,2)n >= 0
MCLin8(2,1,2):  -22 y(1,2,2) - v(2,1,2)p + v(2,1,2)n + u(2,1,2)p - u(2,1,2)n >= -22
MCLin9(2,1,2):  -22 y(1,2,2) + u(2,1,2)p - u(2,1,2)n <= 0
MCLin10(2,1,2):  37 y(1,2,2) - v(2,1,2)p + v(2,1,2)n + u(2,1,2)p - u(2,1,2)n <= 37
makespan(0):  C - x(0,0) >= 1
makespan(1):  C - x(1,2) >= 7
makespan(2):  C - x(2,0) >= 2
cut_clique_1(0,1):  0.99887 x(0,1) + 0.99821 x(1,1) + 0.99868 x(2,1) >= 1
cut_clique_1(1,1):  0.99962 x(0,1) + 0.99898 x(1,1) + 0.99929 x(2,1) >= 1
cut_clique_1(2,1):  0.99941 x(0,1) + 0.99758 x(1,1) + 0.99968 x(2,1) >= 1
cut_clique_1(3,1):  0.99982 x(0,1) + 0.99755 x(1,1) + 0.99950 x(2,1) >= 1
cut_clique_1(4,1):  0.99954 x(0,1) + 0.99841 x(1,1) + 0.99992 x(2,1) >= 1
cut_clique_1(5,1):  0.99897 x(0,1) + 0.99830 x(1,1) + 0.99968 x(2,1) >= 1
cut_clique_1(6,1):  0.99954 x(0,1) + 0.99877 x(1,1) + 0.99925 x(2,1) >= 1
cut_clique_1(7,1):  0.99931 x(0,1) + 0.99813 x(1,1) + 0.99908 x(2,1) >= 1
cut_clique_1(8,1):  0.99986 x(0,1) + 0.99833 x(1,1) + 0.99868 x(2,1) >= 1
cut_clique_1(9,1):  0.99973 x(0,1) + 0.99821 x(1,1) + 0.99868 x(2,1) >= 1
cut_clique_1(10,1):  0.99982 x(0,1) + 0.99966 x(1,1) + 0.99950 x(2,1) >= 1
cut_clique_1(11,1):  0.99962 x(0,1) + 0.99887 x(1,1) + 0.99929 x(2,1) >= 1
cut_clique_1(12,1):  0.99941 x(0,1) + 0.99722 x(1,1) + 0.99968 x(2,1) >= 1
cut_clique_1(13,1):  0.99931 x(0,1) + 0.99813 x(1,1) + 0.99935 x(2,1) >= 1
cut_clique_1(14,1):  0.99913 x(0,1) + 0.99850 x(1,1) + 0.99885 x(2,1) >= 1
cut_clique_1(15,1):  0.99834 x(0,1) + 0.99983 x(1,1) + 0.99925 x(2,1) >= 1
cut_clique_1(16,1):  0.99931 x(0,1) + 0.99813 x(1,1) + 0.99943 x(2,1) >= 1
cut_clique_1(17,1):  0.99954 x(0,1) + 0.99877 x(1,1) + 0.99992 x(2,1) >= 1
cut_clique_1(18,1):  0.99932 x(0,1) + 0.99923 x(1,1) + 0.99925 x(2,1) >= 1
cut_clique_1(19,1):  0.99913 x(0,1) + 0.99813 x(1,1) + 0.99962 x(2,1) >= 1
cut_clique_1(20,1):  0.99973 x(0,1) + 0.99845 x(1,1) + 0.99868 x(2,1) >= 1
cut_clique_1(21,1):  0.99913 x(0,1) + 0.99813 x(1,1) + 0.99935 x(2,1) >= 1
cut_clique_1(22,1):  0.99757 x(0,1) + 0.99862 x(1,1) + 0.99968 x(2,1) >= 1
cut_clique_1(23,1):  0.99913 x(0,1) + 0.99850 x(1,1) + 0.99962 x(2,1) >= 1
cut_clique_1(24,1):  0.99962 x(0,1) + 0.99907 x(1,1) + 0.99929 x(2,1) >= 1
cut_clique_1(25,1):  0.99900 x(0,1) + 0.99828 x(1,1) + 0.99961 x(2,1) >= 1
cut_clique_1(26,1):  0.99914 x(0,1) + 0.99983 x(1,1) + 0.99925 x(2,1) >= 1
cut_clique_1(27,1):  0.99900 x(0,1) + 0.99923 x(1,1) + 0.99925 x(2,1) >= 1
cut_clique_1(28,1):  0.99706 x(0,1) + 0.99911 x(1,1) + 0.99961 x(2,1) >= 1
cut_clique_1(29,1):  0.99834 x(0,1) + 0.99877 x(1,1) + 0.99925 x(2,1) >= 1
cut_clique_1(30,1):  0.99913 x(0,1) + 0.99850 x(1,1) + 0.99862 x(2,1) >= 1
cut_clique_1(31,1):  0.99900 x(0,1) + 0.99923 x(1,1) + 0.99984 x(2,1) >= 1
cut_clique_1(32,1):  0.99900 x(0,1) + 0.99828 x(1,1) + 0.99916 x(2,1) >= 1
cut_clique_1(33,1):  0.99962 x(0,1) + 0.99878 x(1,1) + 0.99929 x(2,1) >= 1
cut_clique_1(34,1):  0.99954 x(0,1) + 0.99981 x(1,1) + 0.99992 x(2,1) >= 1
cut_clique_1(35,1):  0.99913 x(0,1) + 0.99909 x(1,1) + 0.99862 x(2,1) >= 1
cut_clique_1(36,1):  0.99986 x(0,1) + 0.99981 x(1,1) + 0.99707 x(2,1) >= 1
cut_clique_1(37,1):  0.99900 x(0,1) + 0.99814 x(1,1) + 0.99984 x(2,1) >= 1
cut_clique_1(38,1):  0.99932 x(0,1) + 0.99983 x(1,1) + 0.99925 x(2,1) >= 1
cut_clique_1(39,1):  0.99986 x(0,1) + 0.99981 x(1,1) + 0.99926 x(2,1) >= 1
cut_clique_1(40,1):  0.99986 x(0,1) + 0.99981 x(1,1) + 0.99992 x(2,1) >= 1
cut_clique_1(41,1):  0.99834 x(0,1) + 0.99981 x(1,1) + 0.99992 x(2,1) >= 1
cut_clique_1(42,1):  0.99866 x(0,1) + 0.99877 x(1,1) + 0.99925 x(2,1) >= 1
cut_clique_1(43,1):  0.99954 x(0,1) + 0.99743 x(1,1) + 0.99992 x(2,1) >= 1
cut_clique_1(44,1):  0.99913 x(0,1) + 0.99850 x(1,1) + 0.99871 x(2,1) >= 1
cut_clique_1(45,1):  0.99900 x(0,1) + 0.99814 x(1,1) + 0.99916 x(2,1) >= 1
cut_clique_1(46,1):  0.99962 x(0,1) + 0.99813 x(1,1) + 0.99908 x(2,1) >= 1
cut_clique_1(47,1):  0.99954 x(0,1) + 0.99778 x(1,1) + 0.99925 x(2,1) >= 1
cut_clique_1(48,1):  0.99897 x(0,1) + 0.99758 x(1,1) + 0.99968 x(2,1) >= 1
cut_clique_1(49,1):  0.99962 x(0,1) + 0.99813 x(1,1) + 0.99929 x(2,1) >= 1
cut_clique_1(0,2):  0.05246 x(0,2) + 0.04770 x(1,2) >= 1
cut_clique_1(1,2):  0.06659 x(0,2) + 0.03825 x(2,2) >= 1
cut_clique_1(2,2):  0.06692 x(0,2) + 0.03827 x(2,2) >= 1
cut_clique_1(3,2):  0.07121 x(0,2) + 0.03697 x(2,2) >= 1
cut_clique_1(4,2):  0.06828 x(0,2) + 0.03794 x(2,2) >= 1
cut_clique_1(5,2):  0.06125 x(0,2) + 0.04685 x(1,2) >= 1
cut_clique_1(6,2):  0.05123 x(0,2) + 0.05433 x(2,2) >= 1
cut_clique_1(7,2):  0.05123 x(0,2) + 0.04999 x(2,2) >= 1
cut_clique_1(8,2):  0.05123 x(0,2) + 0.05499 x(2,2) >= 1
cut_clique_1(9,2):  0.05276 x(0,2) + 0.05499 x(2,2) >= 1
cut_clique_1(10,2):  0.06675 x(0,2) + 0.03827 x(2,2) >= 1
cut_clique_1(11,2):  0.05435 x(0,2) + 0.05059 x(2,2) >= 1
cut_clique_1(12,2):  0.05435 x(0,2) + 0.05362 x(2,2) >= 1
cut_clique_1(13,2):  0.05380 x(0,2) + 0.05362 x(2,2) >= 1
cut_clique_1(14,2):  0.05380 x(0,2) + 0.04880 x(2,2) >= 1
cut_clique_1(15,2):  0.05380 x(0,2) + 0.04831 x(2,2) >= 1
cut_clique_1(16,2):  0.05380 x(0,2) + 0.04927 x(2,2) >= 1
cut_clique_1(17,2):  0.05058 x(0,2) + 0.04927 x(2,2) >= 1
cut_clique_1(18,2):  0.07042 x(0,2) + 0.03657 x(2,2) >= 1
cut_clique_1(19,2):  0.06828 x(0,2) + 0.03827 x(2,2) >= 1
cut_clique_1(20,2):  0.05326 x(0,2) + 0.05364 x(1,2) >= 1
cut_clique_1(21,2):  0.05246 x(0,2) + 0.04723 x(1,2) >= 1
cut_clique_1(22,2):  0.06659 x(0,2) + 0.03827 x(2,2) >= 1
cut_clique_1(23,2):  0.06761 x(0,2) + 0.03794 x(2,2) >= 1
cut_clique_1(24,2):  0.06828 x(0,2) + 0.03908 x(2,2) >= 1
cut_clique_1(25,2):  0.05326 x(0,2) + 0.04876 x(1,2) >= 1
cut_clique_1(26,2):  0.07042 x(0,2) + 0.03766 x(2,2) >= 1
cut_clique_1(27,2):  0.07042 x(0,2) + 0.03697 x(2,2) >= 1
cut_clique_1(28,2):  0.07116 x(0,2) + 0.03697 x(2,2) >= 1
cut_clique_1(29,2):  0.07042 x(0,2) + 0.03623 x(2,2) >= 1
cut_clique_1(30,2):  0.07186 x(0,2) + 0.03697 x(2,2) >= 1
cut_clique_1(31,2):  0.07046 x(0,2) + 0.03697 x(2,2) >= 1
cut_clique_1(32,2):  0.07042 x(0,2) + 0.03770 x(2,2) >= 1
cut_clique_1(33,2):  0.06761 x(0,2) + 0.03766 x(2,2) >= 1
cut_clique_1(34,2):  0.07340 x(0,2) + 0.03484 x(2,2) >= 1
cut_clique_1(35,2):  0.07045 x(0,2) + 0.03697 x(2,2) >= 1
cut_clique_1(36,2):  0.05666 x(0,2) + 0.04876 x(1,2) >= 1
cut_clique_1(37,2):  0.06908 x(0,2) + 0.03697 x(2,2) >= 1
cut_clique_1(38,2):  0.07042 x(0,2) + 0.03695 x(2,2) >= 1
cut_clique_1(39,2):  0.07042 x(0,2) + 0.03623 x(2,2) >= 1
cut_clique_1(40,2):  0.07042 x(0,2) + 0.03732 x(2,2) >= 1
cut_clique_1(41,2):  0.06659 x(0,2) + 0.03813 x(2,2) >= 1
cut_clique_1(42,2):  0.06761 x(0,2) + 0.03833 x(2,2) >= 1
cut_clique_1(43,2):  0.06761 x(0,2) + 0.03992 x(2,2) >= 1
cut_clique_1(44,2):  0.07042 x(0,2) + 0.03660 x(2,2) >= 1
cut_clique_1(45,2):  0.05666 x(0,2) + 0.04770 x(1,2) >= 1
cut_clique_1(46,2):  0.06020 x(0,2) + 0.04277 x(2,2) >= 1
cut_clique_1(47,2):  0.06562 x(0,2) + 0.04277 x(2,2) >= 1
cut_clique_1(48,2):  0.06037 x(0,2) + 0.04277 x(2,2) >= 1
cut_clique_1(49,2):  0.06828 x(0,2) + 0.03752 x(2,2) >= 1
cut_clique_2(0,1):  0.99971 x(0,1) + 0.99890 x(1,1) >= 1
cut_clique_2(1,1):  0.99909 x(0,1) + 0.99929 x(1,1) >= 1
cut_clique_2(2,1):  0.99982 x(0,1) + 0.99982 x(1,1) >= 1
cut_clique_2(3,1):  0.99993 x(0,1) + 0.99998 x(1,1) >= 1
cut_clique_2(4,1):  0.99925 x(0,1) + 0.99988 x(1,1) >= 1
cut_clique_2(5,1):  0.99969 x(0,1) + 0.99929 x(1,1) >= 1
cut_clique_2(6,1):  0.99825 x(0,1) + 0.99995 x(1,1) >= 1
cut_clique_2(7,1):  0.99982 x(0,1) + x(1,1) >= 1
cut_clique_2(8,1):  0.99971 x(0,1) + 0.99944 x(1,1) >= 1
cut_clique_2(9,1):  0.99989 x(0,1) + 0.99954 x(1,1) >= 1
cut_clique_2(10,1):  0.99883 x(0,1) + 0.99931 x(1,1) >= 1
cut_clique_2(11,1):  0.99925 x(0,1) + 0.99890 x(1,1) >= 1
cut_clique_2(12,1):  0.99954 x(0,1) + 0.99917 x(1,1) >= 1
cut_clique_2(13,1):  0.99989 x(0,1) + 0.99799 x(1,1) >= 1
cut_clique_2(14,1):  0.99901 x(0,1) + 0.99944 x(1,1) >= 1
cut_clique_2(15,1):  0.99967 x(0,1) + 0.99945 x(1,1) >= 1
cut_clique_2(16,1):  0.99957 x(0,1) + 0.99904 x(1,1) >= 1
cut_clique_2(17,1):  0.99989 x(0,1) + 0.99902 x(1,1) >= 1
cut_clique_2(18,1):  0.99922 x(0,1) + 0.99998 x(1,1) >= 1
cut_clique_2(19,1):  0.99970 x(0,1) + 0.99946 x(1,1) >= 1
cut_clique_2(20,1):  0.99982 x(0,1) + 0.99988 x(1,1) >= 1
cut_clique_2(21,1):  0.99957 x(0,1) + 0.99988 x(1,1) >= 1
cut_clique_2(22,1):  0.99925 x(0,1) + 0.99984 x(1,1) >= 1
cut_clique_2(23,1):  0.99967 x(0,1) + 0.99837 x(1,1) >= 1
cut_clique_2(24,1):  0.99901 x(0,1) + 0.99946 x(1,1) >= 1
cut_clique_2(25,1):  0.99989 x(0,1) + 0.99907 x(1,1) >= 1
cut_clique_2(26,1):  0.99930 x(0,1) + 0.99971 x(1,1) >= 1
cut_clique_2(27,1):  0.99930 x(0,1) + 0.99929 x(1,1) >= 1
cut_clique_2(28,1):  0.99957 x(0,1) + 0.99995 x(1,1) >= 1
cut_clique_2(29,1):  0.99986 x(0,1) + 0.99988 x(1,1) >= 1
cut_clique_2(30,1):  0.99939 x(0,1) + 0.99998 x(1,1) >= 1
cut_clique_2(31,1):  0.99989 x(0,1) + 0.99998 x(1,1) >= 1
cut_clique_2(32,1):  0.99966 x(0,1) + 0.99988 x(1,1) >= 1
cut_clique_2(33,1):  0.99970 x(0,1) + 0.99949 x(1,1) >= 1
cut_clique_2(34,1):  0.99970 x(0,1) + 0.99902 x(1,1) >= 1
cut_clique_2(35,1):  0.99982 x(0,1) + 0.99891 x(1,1) >= 1
cut_clique_2(36,1):  0.99989 x(0,1) + 0.99852 x(1,1) >= 1
cut_clique_2(37,1):  0.99930 x(0,1) + 0.99931 x(1,1) >= 1
cut_clique_2(38,1):  0.99957 x(0,1) + 0.99940 x(1,1) >= 1
cut_clique_2(39,1):  0.99883 x(0,1) + 0.99998 x(1,1) >= 1
cut_clique_2(40,1):  0.99934 x(0,1) + 0.99890 x(1,1) >= 1
cut_clique_2(41,1):  0.99939 x(0,1) + 0.99995 x(1,1) >= 1
cut_clique_2(42,1):  0.99930 x(0,1) + 0.99982 x(1,1) >= 1
cut_clique_2(43,1):  0.99957 x(0,1) + 0.99917 x(1,1) >= 1
cut_clique_2(44,1):  0.99954 x(0,1) + 0.99863 x(1,1) >= 1
cut_clique_2(45,1):  0.99971 x(0,1) + 0.99982 x(1,1) >= 1
cut_clique_2(46,1):  0.99989 x(0,1) + 0.99863 x(1,1) >= 1
cut_clique_2(47,1):  0.99909 x(0,1) + 0.99984 x(1,1) >= 1
cut_clique_2(48,1):  0.99957 x(0,1) + 0.99945 x(1,1) >= 1
cut_clique_2(49,1):  0.99953 x(0,1) + 0.99988 x(1,1) >= 1
cut_clique_2(0,2):  0.04559 x(0,2) + 0.05356 x(1,2) >= 1
cut_clique_2(1,2):  0.04776 x(0,2) + 0.05021 x(1,2) >= 1
cut_clique_2(2,2):  0.04967 x(0,2) + 0.04821 x(1,2) >= 1
cut_clique_2(3,2):  0.04818 x(0,2) + 0.04821 x(1,2) >= 1
cut_clique_2(4,2):  0.04818 x(0,2) + 0.05062 x(1,2) >= 1
cut_clique_2(5,2):  0.04721 x(0,2) + 0.05062 x(1,2) >= 1
cut_clique_2(6,2):  0.04672 x(0,2) + 0.04981 x(1,2) >= 1
cut_clique_2(7,2):  0.04672 x(0,2) + 0.05031 x(1,2) >= 1
cut_clique_2(8,2):  0.04812 x(0,2) + 0.05031 x(1,2) >= 1
cut_clique_2(9,2):  0.04812 x(0,2) + 0.04930 x(1,2) >= 1
cut_clique_2(10,2):  0.05005 x(0,2) + 0.04930 x(1,2) >= 1
cut_clique_2(11,2):  0.05005 x(0,2) + 0.04683 x(1,2) >= 1
cut_clique_2(12,2):  0.05005 x(0,2) + 0.04824 x(1,2) >= 1
cut_clique_2(13,2):  0.04704 x(0,2) + 0.05044 x(1,2) >= 1
cut_clique_2(14,2):  0.04422 x(0,2) + 0.05525 x(1,2) >= 1
cut_clique_2(15,2):  0.04422 x(0,2) + 0.05524 x(1,2) >= 1
cut_clique_2(16,2):  0.04573 x(0,2) + 0.05293 x(1,2) >= 1
cut_clique_2(17,2):  0.04619 x(0,2) + 0.05293 x(1,2) >= 1
cut_clique_2(18,2):  0.04572 x(0,2) + 0.05293 x(1,2) >= 1
cut_clique_2(19,2):  0.04572 x(0,2) + 0.05240 x(1,2) >= 1
cut_clique_2(20,2):  0.04572 x(0,2) + 0.05293 x(1,2) >= 1
cut_clique_2(21,2):  0.04527 x(0,2) + 0.05293 x(1,2) >= 1
cut_clique_2(22,2):  0.04527 x(0,2) + 0.05240 x(1,2) >= 1
cut_clique_2(23,2):  0.04572 x(0,2) + 0.05240 x(1,2) >= 1
cut_clique_2(24,2):  0.04572 x(0,2) + 0.05187 x(1,2) >= 1
cut_clique_2(25,2):  0.04618 x(0,2) + 0.05187 x(1,2) >= 1
cut_clique_2(26,2):  0.04618 x(0,2) + 0.05136 x(1,2) >= 1
cut_clique_2(27,2):  0.04664 x(0,2) + 0.05136 x(1,2) >= 1
cut_clique_2(28,2):  0.04710 x(0,2) + 0.05136 x(1,2) >= 1
cut_clique_2(29,2):  0.04663 x(0,2) + 0.05136 x(1,2) >= 1
cut_clique_2(30,2):  0.04617 x(0,2) + 0.05136 x(1,2) >= 1
cut_clique_2(31,2):  0.04663 x(0,2) + 0.05136 x(1,2) >= 1
cut_clique_2(32,2):  0.04710 x(0,2) + 0.05136 x(1,2) >= 1
cut_clique_2(33,2):  0.04710 x(0,2) + 0.05084 x(1,2) >= 1
cut_clique_2(34,2):  0.04662 x(0,2) + 0.05084 x(1,2) >= 1
cut_clique_2(35,2):  0.04662 x(0,2) + 0.05033 x(1,2) >= 1
cut_clique_2(36,2):  0.04662 x(0,2) + 0.04983 x(1,2) >= 1
cut_clique_2(37,2):  0.04662 x(0,2) + 0.04982 x(1,2) >= 1
Bounds
 0 <= C <= 44
 14 <= x(0,0) <= 43
 0 <= y(0,1,0) <= 1
 0 <= y(1,0,0) <= 1
 0 <= v(0,1,0)p <= 36
 0 <= v(0,1,0)n <= 23
 0 <= v(1,0,0)p <= 19
 0 <= v(1,0,0)n <= 40
 0 <= u(0,1,0)p <= 440
 0 <= u(0,1,0)n <= 440
 0 <= u(1,0,0)p <= 440
 0 <= u(1,0,0)n <= 440
 0 <= y(0,2,0) <= 1
 0 <= y(2,0,0) <= 1
 0 <= v(0,2,0)p <= 28
 0 <= v(0,2,0)n <= 30
 0 <= v(2,0,0)p <= 27
 0 <= v(2,0,0)n <= 31
 0 <= u(0,2,0)p <= 440
 0 <= u(0,2,0)n <= 440
 0 <= u(2,0,0)p <= 440
 0 <= u(2,0,0)n <= 440
 4 <= x(1,0) <= 34
 0 <= y(1,2,0) <= 1
 0 <= y(2,1,0) <= 1
 0 <= v(1,2,0)p <= 19
 0 <= v(1,2,0)n <= 40
 0 <= v(2,1,0)p <= 35
 0 <= v(2,1,0)n <= 24
 0 <= u(1,2,0)p <= 440
 0 <= u(1,2,0)n <= 440
 0 <= u(2,1,0)p <= 440
 0 <= u(2,1,0)n <= 440
 13 <= x(2,0) <= 42
 0 <= x(0,1) <= 29
 0 <= y(0,1,1) <= 1
 0 <= y(1,0,1) <= 1
 0 <= v(0,1,1)p <= 25
 0 <= v(0,1,1)n <= 34
 0 <= v(1,0,1)p <= 23
 0 <= v(1,0,1)n <= 36
 0 <= u(0,1,1)p <= 440
 0 <= u(0,1,1)n <= 440
 0 <= u(1,0,1)p <= 440
 0 <= u(1,0,1)n <= 440
 0 <= y(0,2,1) <= 1
 0 <= y(2,0,1) <= 1
 0 <= v(0,2,1)p <= 22
 0 <= v(0,2,1)n <= 36
 0 <= v(2,0,1)p <= 22
 0 <= v(2,0,1)n <= 36
 0 <= u(0,2,1)p <= 440
 0 <= u(0,2,1)n <= 440
 0 <= u(2,0,1)p <= 440
 0 <= u(2,0,1)n <= 440
 0 <= x(1,1) <= 30
 0 <= y(1,2,1) <= 1
 0 <= y(2,1,1) <= 1
 0 <= v(1,2,1)p <= 23
 0 <= v(1,2,1)n <= 36
 0 <= v(2,1,1)p <= 25
 0 <= v(2,1,1)n <= 34
 0 <= u(1,2,1)p <= 440
 0 <= u(1,2,1)n <= 440
 0 <= u(2,1,1)p <= 440
 0 <= u(2,1,1)n <= 440
 0 <= x(2,1) <= 29
 7 <= x(0,2) <= 36
 0 <= y(0,1,2) <= 1
 0 <= y(1,0,2) <= 1
 0 <= v(0,1,2)p <= 22
 0 <= v(0,1,2)n <= 37
 0 <= v(1,0,2)p <= 23
 0 <= v(1,0,2)n <= 36
 0 <= u(0,1,2)p <= 440
 0 <= u(0,1,2)n <= 440
 0 <= u(1,0,2)p <= 440
 0 <= u(1,0,2)n <= 440
 0 <= y(0,2,2) <= 1
 0 <= y(2,0,2) <= 1
 0 <= v(0,2,2)p <= 23
 0 <= v(0,2,2)n <= 35
 0 <= v(2,0,2)p <= 22
 0 <= v(2,0,2)n <= 36
 0 <= u(0,2,2)p <= 440
 0 <= u(0,2,2)n <= 440
 0 <= u(2,0,2)p <= 440
 0 <= u(2,0,2)n <= 440
 7 <= x(1,2) <= 37
 0 <= y(1,2,2) <= 1
 0 <= y(2,1,2) <= 1
 0 <= v(1,2,2)p <= 24
 0 <= v(1,2,2)n <= 35
 0 <= v(2,1,2)p <= 22
 0 <= v(2,1,2)n <= 37
 0 <= u(1,2,2)p <= 440
 0 <= u(1,2,2)n <= 440
 0 <= u(2,1,2)p <= 440
 0 <= u(2,1,2)n <= 440
 7 <= x(2,2) <= 36
End
